c Reduced graph for p15_0 generated by Cyril Grelier
p edge 34 136
v 1 95
v 2 95
v 3 80
v 4 80
v 5 73
v 6 73
v 7 66
v 8 66
v 9 63
v 10 63
v 11 58
v 12 58
v 13 55
v 14 55
v 15 49
v 16 49
v 17 45
v 18 45
v 19 37
v 20 37
v 21 31
v 22 31
v 23 26
v 24 26
v 25 19
v 26 19
v 27 16
v 28 16
v 29 15
v 30 15
v 31 8
v 32 8
v 33 5
v 34 5
e 1 5
e 1 8
e 1 11
e 1 16
e 1 17
e 1 19
e 1 21
e 1 23
e 2 6
e 2 7
e 2 12
e 2 15
e 2 18
e 2 20
e 2 22
e 2 24
e 3 9
e 3 14
e 3 15
e 3 21
e 3 23
e 3 31
e 3 34
e 4 10
e 4 13
e 4 16
e 4 22
e 4 24
e 4 32
e 4 33
e 5 16
e 5 17
e 5 19
e 5 23
e 5 25
e 5 27
e 5 31
e 6 15
e 6 18
e 6 20
e 6 24
e 6 26
e 6 28
e 6 32
e 7 9
e 7 12
e 7 13
e 7 19
e 7 22
e 7 28
e 7 29
e 8 10
e 8 11
e 8 14
e 8 20
e 8 21
e 8 27
e 8 30
e 9 13
e 9 15
e 9 19
e 9 21
e 9 28
e 9 29
e 9 31
e 10 14
e 10 16
e 10 20
e 10 22
e 10 27
e 10 30
e 10 32
e 11 18
e 11 21
e 11 25
e 11 29
e 11 34
e 12 17
e 12 22
e 12 26
e 12 30
e 12 33
e 13 19
e 13 24
e 13 28
e 13 29
e 13 33
e 14 20
e 14 23
e 14 27
e 14 30
e 14 34
e 15 18
e 15 20
e 15 21
e 15 24
e 15 31
e 16 17
e 16 19
e 16 22
e 16 23
e 16 32
e 17 19
e 17 23
e 17 26
e 17 30
e 17 33
e 18 20
e 18 24
e 18 25
e 18 29
e 18 34
e 19 23
e 19 28
e 19 29
e 20 24
e 20 27
e 20 30
e 21 31
e 22 32
e 23 34
e 24 33
e 25 27
e 25 29
e 25 31
e 25 34
e 26 28
e 26 30
e 26 32
e 26 33
e 27 30
e 27 31
e 28 29
e 28 32
e 29 34
e 30 33
